benchmark/results/graph__10-1000-0.10-03_17/graph__10-1000-0.10-03_17_Quinton_Monolithic.lp
\ This file has been generated by DOcplex
\ ENCODING=ISO-8859-1
\Problem name: Quinton Monolithic

Maximize
 obj: tau
Subject To
 c1: tau - 0.000982318271 m_a0_proc_0 - 0.001402524544 m_a0_proc_2 <= 0
 c2: y_a0_proc_0 + y_a0_proc_2 - tau = 0
 c3: m_a0_proc_0 + m_a0_proc_2 = 1
 c4: y_a0_proc_0 - m_a0_proc_0 <= 0
 c5: y_a0_proc_0 >= 0
 c6: y_a0_proc_2 - m_a0_proc_2 <= 0
 c7: y_a0_proc_2 >= 0
 c8: tau - 0.000917431193 m_a1_proc_0 - 0.000776397516 m_a1_proc_2 <= 0
 c9: y_a1_proc_0 + y_a1_proc_2 - tau = 0
 c10: m_a1_proc_0 + m_a1_proc_2 = 1
 c11: y_a1_proc_0 - m_a1_proc_0 <= 0
 c12: y_a1_proc_0 >= 0
 c13: y_a1_proc_2 - m_a1_proc_2 <= 0
 c14: y_a1_proc_2 >= 0
 c15: tau - 0.003215434084 m_a2_proc_0 - 0.004608294931 m_a2_proc_1
      - 0.000942507069 m_a2_proc_2 <= 0
 c16: y_a2_proc_0 + y_a2_proc_1 + y_a2_proc_2 - tau = 0
 c17: m_a2_proc_0 + m_a2_proc_1 + m_a2_proc_2 = 1
 c18: y_a2_proc_0 - m_a2_proc_0 <= 0
 c19: y_a2_proc_0 >= 0
 c20: y_a2_proc_1 - m_a2_proc_1 <= 0
 c21: y_a2_proc_1 >= 0
 c22: y_a2_proc_2 - m_a2_proc_2 <= 0
 c23: y_a2_proc_2 >= 0
 c24: tau - 0.001049317943 m_a3_proc_1 - 0.001574803150 m_a3_proc_2 <= 0
 c25: y_a3_proc_1 + y_a3_proc_2 - tau = 0
 c26: m_a3_proc_1 + m_a3_proc_2 = 1
 c27: y_a3_proc_1 - m_a3_proc_1 <= 0
 c28: y_a3_proc_1 >= 0
 c29: y_a3_proc_2 - m_a3_proc_2 <= 0
 c30: y_a3_proc_2 >= 0
 c31: tau - 0.000931098696 m_a4_proc_0 - 0.001072961373 m_a4_proc_1
      - 0.001303780965 m_a4_proc_2 <= 0
 c32: y_a4_proc_0 + y_a4_proc_1 + y_a4_proc_2 - tau = 0
 c33: m_a4_proc_0 + m_a4_proc_1 + m_a4_proc_2 = 1
 c34: y_a4_proc_0 - m_a4_proc_0 <= 0
 c35: y_a4_proc_0 >= 0
 c36: y_a4_proc_1 - m_a4_proc_1 <= 0
 c37: y_a4_proc_1 >= 0
 c38: y_a4_proc_2 - m_a4_proc_2 <= 0
 c39: y_a4_proc_2 >= 0
 c40: tau - 0.001006036217 m_a5_proc_0 - 0.001221001221 m_a5_proc_2 <= 0
 c41: y_a5_proc_0 + y_a5_proc_2 - tau = 0
 c42: m_a5_proc_0 + m_a5_proc_2 = 1
 c43: y_a5_proc_0 - m_a5_proc_0 <= 0
 c44: y_a5_proc_0 >= 0
 c45: y_a5_proc_2 - m_a5_proc_2 <= 0
 c46: y_a5_proc_2 >= 0
 c47: tau - 0.001031991744 m_a6_proc_0 - 0.001009081736 m_a6_proc_1
      - 0.001937984496 m_a6_proc_2 <= 0
 c48: y_a6_proc_0 + y_a6_proc_1 + y_a6_proc_2 - tau = 0
 c49: m_a6_proc_0 + m_a6_proc_1 + m_a6_proc_2 = 1
 c50: y_a6_proc_0 - m_a6_proc_0 <= 0
 c51: y_a6_proc_0 >= 0
 c52: y_a6_proc_1 - m_a6_proc_1 <= 0
 c53: y_a6_proc_1 >= 0
 c54: y_a6_proc_2 - m_a6_proc_2 <= 0
 c55: y_a6_proc_2 >= 0
 c56: tau - 0.001119820829 m_a7_proc_0 - 0.000881057269 m_a7_proc_1
      - 0.001164144354 m_a7_proc_2 <= 0
 c57: y_a7_proc_0 + y_a7_proc_1 + y_a7_proc_2 - tau = 0
 c58: m_a7_proc_0 + m_a7_proc_1 + m_a7_proc_2 = 1
 c59: y_a7_proc_0 - m_a7_proc_0 <= 0
 c60: y_a7_proc_0 >= 0
 c61: y_a7_proc_1 - m_a7_proc_1 <= 0
 c62: y_a7_proc_1 >= 0
 c63: y_a7_proc_2 - m_a7_proc_2 <= 0
 c64: y_a7_proc_2 >= 0
 c65: tau - 0.001190476190 m_a8_proc_0 - 0.000804505229 m_a8_proc_1 <= 0
 c66: y_a8_proc_0 + y_a8_proc_1 - tau = 0
 c67: m_a8_proc_0 + m_a8_proc_1 = 1
 c68: y_a8_proc_0 - m_a8_proc_0 <= 0
 c69: y_a8_proc_0 >= 0
 c70: y_a8_proc_1 - m_a8_proc_1 <= 0
 c71: y_a8_proc_1 >= 0
 c72: tau - 0.001226993865 m_a9_proc_0 - 0.000804505229 m_a9_proc_1
      - 0.000852514919 m_a9_proc_2 <= 0
 c73: y_a9_proc_0 + y_a9_proc_1 + y_a9_proc_2 - tau = 0
 c74: m_a9_proc_0 + m_a9_proc_1 + m_a9_proc_2 = 1
 c75: y_a9_proc_0 - m_a9_proc_0 <= 0
 c76: y_a9_proc_0 >= 0
 c77: y_a9_proc_1 - m_a9_proc_1 <= 0
 c78: y_a9_proc_1 >= 0
 c79: y_a9_proc_2 - m_a9_proc_2 <= 0
 c80: y_a9_proc_2 >= 0
 c81: u_a1 - u_a0 - 1018 y_a0_proc_0 - 713 y_a0_proc_2 >= 0
 c82: u_a1 - u_a2 - 311 y_a2_proc_0 - 217 y_a2_proc_1 - 1061 y_a2_proc_2 >= -1
 c83: u_a0 - u_a3 - 953 y_a3_proc_1 - 635 y_a3_proc_2 >= 0
 c84: u_a0 - u_a4 - 1074 y_a4_proc_0 - 932 y_a4_proc_1 - 767 y_a4_proc_2 >= -1
 c85: u_a5 - u_a1 - 1090 y_a1_proc_0 - 1288 y_a1_proc_2 >= -1
 c86: u_a6 - u_a4 - 1074 y_a4_proc_0 - 932 y_a4_proc_1 - 767 y_a4_proc_2 >= 0
 c87: u_a7 - u_a2 - 311 y_a2_proc_0 - 217 y_a2_proc_1 - 1061 y_a2_proc_2 >= 0
 c88: u_a8 - u_a0 - 1018 y_a0_proc_0 - 713 y_a0_proc_2 >= 0
 c89: u_a9 - u_a6 - 969 y_a6_proc_0 - 991 y_a6_proc_1 - 516 y_a6_proc_2 >= -1
 c90: u_a5 - u_a7 - 893 y_a7_proc_0 - 1135 y_a7_proc_1 - 859 y_a7_proc_2 >= -1
 c91: u_a3 - u_a9 - 815 y_a9_proc_0 - 1243 y_a9_proc_1 - 1173 y_a9_proc_2 >= -1
 c92: u_a1 - u_a5 - 994 y_a5_proc_0 - 819 y_a5_proc_2 >= 0
 c93: u_a9 - u_a2 - 311 y_a2_proc_0 - 217 y_a2_proc_1 - 1061 y_a2_proc_2 >= -2
 c94: u_a8 - u_a3 - 953 y_a3_proc_1 - 635 y_a3_proc_2 >= 0
 c95: u_a2 - u_a1 - 1090 y_a1_proc_0 - 1288 y_a1_proc_2 >= 0
 c96: u_a4 - u_a8 - 840 y_a8_proc_0 - 1243 y_a8_proc_1 >= 0
 c97: u_a3 - u_a4 - 1074 y_a4_proc_0 - 932 y_a4_proc_1 - 767 y_a4_proc_2 >= -1
 c98: u_a1 + K_a0_a1 - 1288 m_a0_proc_2 - 1288 m_a1_proc_2 - u_a0
      - 713 y_a0_proc_2 >= -2576
 c99: u_a1 + K_a0_a1 - 1288 m_a0_proc_0 - 1288 m_a1_proc_0 - u_a0
      - 1018 y_a0_proc_0 >= -2576
 c100: K_a0_a1 + K_a1_a0 = 1
 c101: u_a0 + K_a1_a0 - 1288 m_a0_proc_2 - 1288 m_a1_proc_2 - u_a1
       - 1288 y_a1_proc_2 >= -2576
 c102: u_a0 + K_a1_a0 - 1288 m_a0_proc_0 - 1288 m_a1_proc_0 - u_a1
       - 1090 y_a1_proc_0 >= -2576
 c103: K_a0_a1 + K_a1_a0 = 1
 c104: u_a2 + K_a0_a2 - 1288 m_a0_proc_2 - 1288 m_a2_proc_2 - u_a0
       - 713 y_a0_proc_2 >= -2576
 c105: u_a2 + K_a0_a2 - 1288 m_a0_proc_0 - 1288 m_a2_proc_0 - u_a0
       - 1018 y_a0_proc_0 >= -2576
 c106: K_a0_a2 + K_a2_a0 = 1
 c107: u_a0 + K_a2_a0 - 1288 m_a0_proc_2 - 1288 m_a2_proc_2 - u_a2
       - 1061 y_a2_proc_2 >= -2576
 c108: u_a0 + K_a2_a0 - 1288 m_a0_proc_0 - 1288 m_a2_proc_0 - u_a2
       - 311 y_a2_proc_0 >= -2576
 c109: K_a0_a2 + K_a2_a0 = 1
 c110: u_a3 + K_a0_a3 - 1288 m_a0_proc_2 - 1288 m_a3_proc_2 - u_a0
       - 713 y_a0_proc_2 >= -2576
 c111: K_a0_a3 + K_a3_a0 = 1
 c112: u_a0 + K_a3_a0 - 1288 m_a0_proc_2 - 1288 m_a3_proc_2 - u_a3
       - 635 y_a3_proc_2 >= -2576
 c113: K_a0_a3 + K_a3_a0 = 1
 c114: u_a4 + K_a0_a4 - 1288 m_a0_proc_2 - 1288 m_a4_proc_2 - u_a0
       - 713 y_a0_proc_2 >= -2576
 c115: u_a4 + K_a0_a4 - 1288 m_a0_proc_0 - 1288 m_a4_proc_0 - u_a0
       - 1018 y_a0_proc_0 >= -2576
 c116: K_a0_a4 + K_a4_a0 = 1
 c117: u_a0 + K_a4_a0 - 1288 m_a0_proc_2 - 1288 m_a4_proc_2 - u_a4
       - 767 y_a4_proc_2 >= -2576
 c118: u_a0 + K_a4_a0 - 1288 m_a0_proc_0 - 1288 m_a4_proc_0 - u_a4
       - 1074 y_a4_proc_0 >= -2576
 c119: K_a0_a4 + K_a4_a0 = 1
 c120: u_a5 + K_a0_a5 - 1288 m_a0_proc_2 - 1288 m_a5_proc_2 - u_a0
       - 713 y_a0_proc_2 >= -2576
 c121: u_a5 + K_a0_a5 - 1288 m_a0_proc_0 - 1288 m_a5_proc_0 - u_a0
       - 1018 y_a0_proc_0 >= -2576
 c122: K_a0_a5 + K_a5_a0 = 1
 c123: u_a0 + K_a5_a0 - 1288 m_a0_proc_2 - 1288 m_a5_proc_2 - u_a5
       - 819 y_a5_proc_2 >= -2576
 c124: u_a0 + K_a5_a0 - 1288 m_a0_proc_0 - 1288 m_a5_proc_0 - u_a5
       - 994 y_a5_proc_0 >= -2576
 c125: K_a0_a5 + K_a5_a0 = 1
 c126: u_a6 + K_a0_a6 - 1288 m_a0_proc_2 - 1288 m_a6_proc_2 - u_a0
       - 713 y_a0_proc_2 >= -2576
 c127: u_a6 + K_a0_a6 - 1288 m_a0_proc_0 - 1288 m_a6_proc_0 - u_a0
       - 1018 y_a0_proc_0 >= -2576
 c128: K_a0_a6 + K_a6_a0 = 1
 c129: u_a0 + K_a6_a0 - 1288 m_a0_proc_2 - 1288 m_a6_proc_2 - u_a6
       - 516 y_a6_proc_2 >= -2576
 c130: u_a0 + K_a6_a0 - 1288 m_a0_proc_0 - 1288 m_a6_proc_0 - u_a6
       - 969 y_a6_proc_0 >= -2576
 c131: K_a0_a6 + K_a6_a0 = 1
 c132: u_a7 + K_a0_a7 - 1288 m_a0_proc_2 - 1288 m_a7_proc_2 - u_a0
       - 713 y_a0_proc_2 >= -2576
 c133: u_a7 + K_a0_a7 - 1288 m_a0_proc_0 - 1288 m_a7_proc_0 - u_a0
       - 1018 y_a0_proc_0 >= -2576
 c134: K_a0_a7 + K_a7_a0 = 1
 c135: u_a0 + K_a7_a0 - 1288 m_a0_proc_2 - 1288 m_a7_proc_2 - u_a7
       - 859 y_a7_proc_2 >= -2576
 c136: u_a0 + K_a7_a0 - 1288 m_a0_proc_0 - 1288 m_a7_proc_0 - u_a7
       - 893 y_a7_proc_0 >= -2576
 c137: K_a0_a7 + K_a7_a0 = 1
 c138: u_a8 + K_a0_a8 - 1288 m_a0_proc_0 - 1288 m_a8_proc_0 - u_a0
       - 1018 y_a0_proc_0 >= -2576
 c139: K_a0_a8 + K_a8_a0 = 1
 c140: u_a0 + K_a8_a0 - 1288 m_a0_proc_0 - 1288 m_a8_proc_0 - u_a8
       - 840 y_a8_proc_0 >= -2576
 c141: K_a0_a8 + K_a8_a0 = 1
 c142: u_a9 + K_a0_a9 - 1288 m_a0_proc_2 - 1288 m_a9_proc_2 - u_a0
       - 713 y_a0_proc_2 >= -2576
 c143: u_a9 + K_a0_a9 - 1288 m_a0_proc_0 - 1288 m_a9_proc_0 - u_a0
       - 1018 y_a0_proc_0 >= -2576
 c144: K_a0_a9 + K_a9_a0 = 1
 c145: u_a0 + K_a9_a0 - 1288 m_a0_proc_2 - 1288 m_a9_proc_2 - u_a9
       - 1173 y_a9_proc_2 >= -2576
 c146: u_a0 + K_a9_a0 - 1288 m_a0_proc_0 - 1288 m_a9_proc_0 - u_a9
       - 815 y_a9_proc_0 >= -2576
 c147: K_a0_a9 + K_a9_a0 = 1
 c148: u_a2 + K_a1_a2 - 1288 m_a1_proc_2 - 1288 m_a2_proc_2 - u_a1
       - 1288 y_a1_proc_2 >= -2576
 c149: u_a2 + K_a1_a2 - 1288 m_a1_proc_0 - 1288 m_a2_proc_0 - u_a1
       - 1090 y_a1_proc_0 >= -2576
 c150: K_a1_a2 + K_a2_a1 = 1
 c151: u_a1 + K_a2_a1 - 1288 m_a1_proc_2 - 1288 m_a2_proc_2 - u_a2
       - 1061 y_a2_proc_2 >= -2576
 c152: u_a1 + K_a2_a1 - 1288 m_a1_proc_0 - 1288 m_a2_proc_0 - u_a2
       - 311 y_a2_proc_0 >= -2576
 c153: K_a1_a2 + K_a2_a1 = 1
 c154: u_a3 + K_a1_a3 - 1288 m_a1_proc_2 - 1288 m_a3_proc_2 - u_a1
       - 1288 y_a1_proc_2 >= -2576
 c155: K_a1_a3 + K_a3_a1 = 1
 c156: u_a1 + K_a3_a1 - 1288 m_a1_proc_2 - 1288 m_a3_proc_2 - u_a3
       - 635 y_a3_proc_2 >= -2576
 c157: K_a1_a3 + K_a3_a1 = 1
 c158: u_a4 + K_a1_a4 - 1288 m_a1_proc_2 - 1288 m_a4_proc_2 - u_a1
       - 1288 y_a1_proc_2 >= -2576
 c159: u_a4 + K_a1_a4 - 1288 m_a1_proc_0 - 1288 m_a4_proc_0 - u_a1
       - 1090 y_a1_proc_0 >= -2576
 c160: K_a1_a4 + K_a4_a1 = 1
 c161: u_a1 + K_a4_a1 - 1288 m_a1_proc_2 - 1288 m_a4_proc_2 - u_a4
       - 767 y_a4_proc_2 >= -2576
 c162: u_a1 + K_a4_a1 - 1288 m_a1_proc_0 - 1288 m_a4_proc_0 - u_a4
       - 1074 y_a4_proc_0 >= -2576
 c163: K_a1_a4 + K_a4_a1 = 1
 c164: u_a5 + K_a1_a5 - 1288 m_a1_proc_2 - 1288 m_a5_proc_2 - u_a1
       - 1288 y_a1_proc_2 >= -2576
 c165: u_a5 + K_a1_a5 - 1288 m_a1_proc_0 - 1288 m_a5_proc_0 - u_a1
       - 1090 y_a1_proc_0 >= -2576
 c166: K_a1_a5 + K_a5_a1 = 1
 c167: u_a1 + K_a5_a1 - 1288 m_a1_proc_2 - 1288 m_a5_proc_2 - u_a5
       - 819 y_a5_proc_2 >= -2576
 c168: u_a1 + K_a5_a1 - 1288 m_a1_proc_0 - 1288 m_a5_proc_0 - u_a5
       - 994 y_a5_proc_0 >= -2576
 c169: K_a1_a5 + K_a5_a1 = 1
 c170: u_a6 + K_a1_a6 - 1288 m_a1_proc_2 - 1288 m_a6_proc_2 - u_a1
       - 1288 y_a1_proc_2 >= -2576
 c171: u_a6 + K_a1_a6 - 1288 m_a1_proc_0 - 1288 m_a6_proc_0 - u_a1
       - 1090 y_a1_proc_0 >= -2576
 c172: K_a1_a6 + K_a6_a1 = 1
 c173: u_a1 + K_a6_a1 - 1288 m_a1_proc_2 - 1288 m_a6_proc_2 - u_a6
       - 516 y_a6_proc_2 >= -2576
 c174: u_a1 + K_a6_a1 - 1288 m_a1_proc_0 - 1288 m_a6_proc_0 - u_a6
       - 969 y_a6_proc_0 >= -2576
 c175: K_a1_a6 + K_a6_a1 = 1
 c176: u_a7 + K_a1_a7 - 1288 m_a1_proc_2 - 1288 m_a7_proc_2 - u_a1
       - 1288 y_a1_proc_2 >= -2576
 c177: u_a7 + K_a1_a7 - 1288 m_a1_proc_0 - 1288 m_a7_proc_0 - u_a1
       - 1090 y_a1_proc_0 >= -2576
 c178: K_a1_a7 + K_a7_a1 = 1
 c179: u_a1 + K_a7_a1 - 1288 m_a1_proc_2 - 1288 m_a7_proc_2 - u_a7
       - 859 y_a7_proc_2 >= -2576
 c180: u_a1 + K_a7_a1 - 1288 m_a1_proc_0 - 1288 m_a7_proc_0 - u_a7
       - 893 y_a7_proc_0 >= -2576
 c181: K_a1_a7 + K_a7_a1 = 1
 c182: u_a8 + K_a1_a8 - 1288 m_a1_proc_0 - 1288 m_a8_proc_0 - u_a1
       - 1090 y_a1_proc_0 >= -2576
 c183: K_a1_a8 + K_a8_a1 = 1
 c184: u_a1 + K_a8_a1 - 1288 m_a1_proc_0 - 1288 m_a8_proc_0 - u_a8
       - 840 y_a8_proc_0 >= -2576
 c185: K_a1_a8 + K_a8_a1 = 1
 c186: u_a9 + K_a1_a9 - 1288 m_a1_proc_2 - 1288 m_a9_proc_2 - u_a1
       - 1288 y_a1_proc_2 >= -2576
 c187: u_a9 + K_a1_a9 - 1288 m_a1_proc_0 - 1288 m_a9_proc_0 - u_a1
       - 1090 y_a1_proc_0 >= -2576
 c188: K_a1_a9 + K_a9_a1 = 1
 c189: u_a1 + K_a9_a1 - 1288 m_a1_proc_2 - 1288 m_a9_proc_2 - u_a9
       - 1173 y_a9_proc_2 >= -2576
 c190: u_a1 + K_a9_a1 - 1288 m_a1_proc_0 - 1288 m_a9_proc_0 - u_a9
       - 815 y_a9_proc_0 >= -2576
 c191: K_a1_a9 + K_a9_a1 = 1
 c192: u_a3 + K_a2_a3 - 1288 m_a2_proc_2 - 1288 m_a3_proc_2 - u_a2
       - 1061 y_a2_proc_2 >= -2576
 c193: u_a3 + K_a2_a3 - 1288 m_a2_proc_1 - 1288 m_a3_proc_1 - u_a2
       - 217 y_a2_proc_1 >= -2576
 c194: K_a2_a3 + K_a3_a2 = 1
 c195: u_a2 + K_a3_a2 - 1288 m_a2_proc_2 - 1288 m_a3_proc_2 - u_a3
       - 635 y_a3_proc_2 >= -2576
 c196: u_a2 + K_a3_a2 - 1288 m_a2_proc_1 - 1288 m_a3_proc_1 - u_a3
       - 953 y_a3_proc_1 >= -2576
 c197: K_a2_a3 + K_a3_a2 = 1
 c198: u_a4 + K_a2_a4 - 1288 m_a2_proc_2 - 1288 m_a4_proc_2 - u_a2
       - 1061 y_a2_proc_2 >= -2576
 c199: u_a4 + K_a2_a4 - 1288 m_a2_proc_0 - 1288 m_a4_proc_0 - u_a2
       - 311 y_a2_proc_0 >= -2576
 c200: u_a4 + K_a2_a4 - 1288 m_a2_proc_1 - 1288 m_a4_proc_1 - u_a2
       - 217 y_a2_proc_1 >= -2576
 c201: K_a2_a4 + K_a4_a2 = 1
 c202: u_a2 + K_a4_a2 - 1288 m_a2_proc_2 - 1288 m_a4_proc_2 - u_a4
       - 767 y_a4_proc_2 >= -2576
 c203: u_a2 + K_a4_a2 - 1288 m_a2_proc_0 - 1288 m_a4_proc_0 - u_a4
       - 1074 y_a4_proc_0 >= -2576
 c204: u_a2 + K_a4_a2 - 1288 m_a2_proc_1 - 1288 m_a4_proc_1 - u_a4
       - 932 y_a4_proc_1 >= -2576
 c205: K_a2_a4 + K_a4_a2 = 1
 c206: u_a5 + K_a2_a5 - 1288 m_a2_proc_2 - 1288 m_a5_proc_2 - u_a2
       - 1061 y_a2_proc_2 >= -2576
 c207: u_a5 + K_a2_a5 - 1288 m_a2_proc_0 - 1288 m_a5_proc_0 - u_a2
       - 311 y_a2_proc_0 >= -2576
 c208: K_a2_a5 + K_a5_a2 = 1
 c209: u_a2 + K_a5_a2 - 1288 m_a2_proc_2 - 1288 m_a5_proc_2 - u_a5
       - 819 y_a5_proc_2 >= -2576
 c210: u_a2 + K_a5_a2 - 1288 m_a2_proc_0 - 1288 m_a5_proc_0 - u_a5
       - 994 y_a5_proc_0 >= -2576
 c211: K_a2_a5 + K_a5_a2 = 1
 c212: u_a6 + K_a2_a6 - 1288 m_a2_proc_2 - 1288 m_a6_proc_2 - u_a2
       - 1061 y_a2_proc_2 >= -2576
 c213: u_a6 + K_a2_a6 - 1288 m_a2_proc_0 - 1288 m_a6_proc_0 - u_a2
       - 311 y_a2_proc_0 >= -2576
 c214: u_a6 + K_a2_a6 - 1288 m_a2_proc_1 - 1288 m_a6_proc_1 - u_a2
       - 217 y_a2_proc_1 >= -2576
 c215: K_a2_a6 + K_a6_a2 = 1
 c216: u_a2 + K_a6_a2 - 1288 m_a2_proc_2 - 1288 m_a6_proc_2 - u_a6
       - 516 y_a6_proc_2 >= -2576
 c217: u_a2 + K_a6_a2 - 1288 m_a2_proc_0 - 1288 m_a6_proc_0 - u_a6
       - 969 y_a6_proc_0 >= -2576
 c218: u_a2 + K_a6_a2 - 1288 m_a2_proc_1 - 1288 m_a6_proc_1 - u_a6
       - 991 y_a6_proc_1 >= -2576
 c219: K_a2_a6 + K_a6_a2 = 1
 c220: u_a7 + K_a2_a7 - 1288 m_a2_proc_2 - 1288 m_a7_proc_2 - u_a2
       - 1061 y_a2_proc_2 >= -2576
 c221: u_a7 + K_a2_a7 - 1288 m_a2_proc_0 - 1288 m_a7_proc_0 - u_a2
       - 311 y_a2_proc_0 >= -2576
 c222: u_a7 + K_a2_a7 - 1288 m_a2_proc_1 - 1288 m_a7_proc_1 - u_a2
       - 217 y_a2_proc_1 >= -2576
 c223: K_a2_a7 + K_a7_a2 = 1
 c224: u_a2 + K_a7_a2 - 1288 m_a2_proc_2 - 1288 m_a7_proc_2 - u_a7
       - 859 y_a7_proc_2 >= -2576
 c225: u_a2 + K_a7_a2 - 1288 m_a2_proc_0 - 1288 m_a7_proc_0 - u_a7
       - 893 y_a7_proc_0 >= -2576
 c226: u_a2 + K_a7_a2 - 1288 m_a2_proc_1 - 1288 m_a7_proc_1 - u_a7
       - 1135 y_a7_proc_1 >= -2576
 c227: K_a2_a7 + K_a7_a2 = 1
 c228: u_a8 + K_a2_a8 - 1288 m_a2_proc_0 - 1288 m_a8_proc_0 - u_a2
       - 311 y_a2_proc_0 >= -2576
 c229: u_a8 + K_a2_a8 - 1288 m_a2_proc_1 - 1288 m_a8_proc_1 - u_a2
       - 217 y_a2_proc_1 >= -2576
 c230: K_a2_a8 + K_a8_a2 = 1
 c231: u_a2 + K_a8_a2 - 1288 m_a2_proc_0 - 1288 m_a8_proc_0 - u_a8
       - 840 y_a8_proc_0 >= -2576
 c232: u_a2 + K_a8_a2 - 1288 m_a2_proc_1 - 1288 m_a8_proc_1 - u_a8
       - 1243 y_a8_proc_1 >= -2576
 c233: K_a2_a8 + K_a8_a2 = 1
 c234: u_a9 + K_a2_a9 - 1288 m_a2_proc_2 - 1288 m_a9_proc_2 - u_a2
       - 1061 y_a2_proc_2 >= -2576
 c235: u_a9 + K_a2_a9 - 1288 m_a2_proc_0 - 1288 m_a9_proc_0 - u_a2
       - 311 y_a2_proc_0 >= -2576
 c236: u_a9 + K_a2_a9 - 1288 m_a2_proc_1 - 1288 m_a9_proc_1 - u_a2
       - 217 y_a2_proc_1 >= -2576
 c237: K_a2_a9 + K_a9_a2 = 1
 c238: u_a2 + K_a9_a2 - 1288 m_a2_proc_2 - 1288 m_a9_proc_2 - u_a9
       - 1173 y_a9_proc_2 >= -2576
 c239: u_a2 + K_a9_a2 - 1288 m_a2_proc_0 - 1288 m_a9_proc_0 - u_a9
       - 815 y_a9_proc_0 >= -2576
 c240: u_a2 + K_a9_a2 - 1288 m_a2_proc_1 - 1288 m_a9_proc_1 - u_a9
       - 1243 y_a9_proc_1 >= -2576
 c241: K_a2_a9 + K_a9_a2 = 1
 c242: u_a4 + K_a3_a4 - 1288 m_a3_proc_2 - 1288 m_a4_proc_2 - u_a3
       - 635 y_a3_proc_2 >= -2576
 c243: u_a4 + K_a3_a4 - 1288 m_a3_proc_1 - 1288 m_a4_proc_1 - u_a3
       - 953 y_a3_proc_1 >= -2576
 c244: K_a3_a4 + K_a4_a3 = 1
 c245: u_a3 + K_a4_a3 - 1288 m_a3_proc_2 - 1288 m_a4_proc_2 - u_a4
       - 767 y_a4_proc_2 >= -2576
 c246: u_a3 + K_a4_a3 - 1288 m_a3_proc_1 - 1288 m_a4_proc_1 - u_a4
       - 932 y_a4_proc_1 >= -2576
 c247: K_a3_a4 + K_a4_a3 = 1
 c248: u_a5 + K_a3_a5 - 1288 m_a3_proc_2 - 1288 m_a5_proc_2 - u_a3
       - 635 y_a3_proc_2 >= -2576
 c249: K_a3_a5 + K_a5_a3 = 1
 c250: u_a3 + K_a5_a3 - 1288 m_a3_proc_2 - 1288 m_a5_proc_2 - u_a5
       - 819 y_a5_proc_2 >= -2576
 c251: K_a3_a5 + K_a5_a3 = 1
 c252: u_a6 + K_a3_a6 - 1288 m_a3_proc_2 - 1288 m_a6_proc_2 - u_a3
       - 635 y_a3_proc_2 >= -2576
 c253: u_a6 + K_a3_a6 - 1288 m_a3_proc_1 - 1288 m_a6_proc_1 - u_a3
       - 953 y_a3_proc_1 >= -2576
 c254: K_a3_a6 + K_a6_a3 = 1
 c255: u_a3 + K_a6_a3 - 1288 m_a3_proc_2 - 1288 m_a6_proc_2 - u_a6
       - 516 y_a6_proc_2 >= -2576
 c256: u_a3 + K_a6_a3 - 1288 m_a3_proc_1 - 1288 m_a6_proc_1 - u_a6
       - 991 y_a6_proc_1 >= -2576
 c257: K_a3_a6 + K_a6_a3 = 1
 c258: u_a7 + K_a3_a7 - 1288 m_a3_proc_2 - 1288 m_a7_proc_2 - u_a3
       - 635 y_a3_proc_2 >= -2576
 c259: u_a7 + K_a3_a7 - 1288 m_a3_proc_1 - 1288 m_a7_proc_1 - u_a3
       - 953 y_a3_proc_1 >= -2576
 c260: K_a3_a7 + K_a7_a3 = 1
 c261: u_a3 + K_a7_a3 - 1288 m_a3_proc_2 - 1288 m_a7_proc_2 - u_a7
       - 859 y_a7_proc_2 >= -2576
 c262: u_a3 + K_a7_a3 - 1288 m_a3_proc_1 - 1288 m_a7_proc_1 - u_a7
       - 1135 y_a7_proc_1 >= -2576
 c263: K_a3_a7 + K_a7_a3 = 1
 c264: u_a8 + K_a3_a8 - 1288 m_a3_proc_1 - 1288 m_a8_proc_1 - u_a3
       - 953 y_a3_proc_1 >= -2576
 c265: K_a3_a8 + K_a8_a3 = 1
 c266: u_a3 + K_a8_a3 - 1288 m_a3_proc_1 - 1288 m_a8_proc_1 - u_a8
       - 1243 y_a8_proc_1 >= -2576
 c267: K_a3_a8 + K_a8_a3 = 1
 c268: u_a9 + K_a3_a9 - 1288 m_a3_proc_2 - 1288 m_a9_proc_2 - u_a3
       - 635 y_a3_proc_2 >= -2576
 c269: u_a9 + K_a3_a9 - 1288 m_a3_proc_1 - 1288 m_a9_proc_1 - u_a3
       - 953 y_a3_proc_1 >= -2576
 c270: K_a3_a9 + K_a9_a3 = 1
 c271: u_a3 + K_a9_a3 - 1288 m_a3_proc_2 - 1288 m_a9_proc_2 - u_a9
       - 1173 y_a9_proc_2 >= -2576
 c272: u_a3 + K_a9_a3 - 1288 m_a3_proc_1 - 1288 m_a9_proc_1 - u_a9
       - 1243 y_a9_proc_1 >= -2576
 c273: K_a3_a9 + K_a9_a3 = 1
 c274: u_a5 + K_a4_a5 - 1288 m_a4_proc_2 - 1288 m_a5_proc_2 - u_a4
       - 767 y_a4_proc_2 >= -2576
 c275: u_a5 + K_a4_a5 - 1288 m_a4_proc_0 - 1288 m_a5_proc_0 - u_a4
       - 1074 y_a4_proc_0 >= -2576
 c276: K_a4_a5 + K_a5_a4 = 1
 c277: u_a4 + K_a5_a4 - 1288 m_a4_proc_2 - 1288 m_a5_proc_2 - u_a5
       - 819 y_a5_proc_2 >= -2576
 c278: u_a4 + K_a5_a4 - 1288 m_a4_proc_0 - 1288 m_a5_proc_0 - u_a5
       - 994 y_a5_proc_0 >= -2576
 c279: K_a4_a5 + K_a5_a4 = 1
 c280: u_a6 + K_a4_a6 - 1288 m_a4_proc_2 - 1288 m_a6_proc_2 - u_a4
       - 767 y_a4_proc_2 >= -2576
 c281: u_a6 + K_a4_a6 - 1288 m_a4_proc_0 - 1288 m_a6_proc_0 - u_a4
       - 1074 y_a4_proc_0 >= -2576
 c282: u_a6 + K_a4_a6 - 1288 m_a4_proc_1 - 1288 m_a6_proc_1 - u_a4
       - 932 y_a4_proc_1 >= -2576
 c283: K_a4_a6 + K_a6_a4 = 1
 c284: u_a4 + K_a6_a4 - 1288 m_a4_proc_2 - 1288 m_a6_proc_2 - u_a6
       - 516 y_a6_proc_2 >= -2576
 c285: u_a4 + K_a6_a4 - 1288 m_a4_proc_0 - 1288 m_a6_proc_0 - u_a6
       - 969 y_a6_proc_0 >= -2576
 c286: u_a4 + K_a6_a4 - 1288 m_a4_proc_1 - 1288 m_a6_proc_1 - u_a6
       - 991 y_a6_proc_1 >= -2576
 c287: K_a4_a6 + K_a6_a4 = 1
 c288: u_a7 + K_a4_a7 - 1288 m_a4_proc_2 - 1288 m_a7_proc_2 - u_a4
       - 767 y_a4_proc_2 >= -2576
 c289: u_a7 + K_a4_a7 - 1288 m_a4_proc_0 - 1288 m_a7_proc_0 - u_a4
       - 1074 y_a4_proc_0 >= -2576
 c290: u_a7 + K_a4_a7 - 1288 m_a4_proc_1 - 1288 m_a7_proc_1 - u_a4
       - 932 y_a4_proc_1 >= -2576
 c291: K_a4_a7 + K_a7_a4 = 1
 c292: u_a4 + K_a7_a4 - 1288 m_a4_proc_2 - 1288 m_a7_proc_2 - u_a7
       - 859 y_a7_proc_2 >= -2576
 c293: u_a4 + K_a7_a4 - 1288 m_a4_proc_0 - 1288 m_a7_proc_0 - u_a7
       - 893 y_a7_proc_0 >= -2576
 c294: u_a4 + K_a7_a4 - 1288 m_a4_proc_1 - 1288 m_a7_proc_1 - u_a7
       - 1135 y_a7_proc_1 >= -2576
 c295: K_a4_a7 + K_a7_a4 = 1
 c296: u_a8 + K_a4_a8 - 1288 m_a4_proc_0 - 1288 m_a8_proc_0 - u_a4
       - 1074 y_a4_proc_0 >= -2576
 c297: u_a8 + K_a4_a8 - 1288 m_a4_proc_1 - 1288 m_a8_proc_1 - u_a4
       - 932 y_a4_proc_1 >= -2576
 c298: K_a4_a8 + K_a8_a4 = 1
 c299: u_a4 + K_a8_a4 - 1288 m_a4_proc_0 - 1288 m_a8_proc_0 - u_a8
       - 840 y_a8_proc_0 >= -2576
 c300: u_a4 + K_a8_a4 - 1288 m_a4_proc_1 - 1288 m_a8_proc_1 - u_a8
       - 1243 y_a8_proc_1 >= -2576
 c301: K_a4_a8 + K_a8_a4 = 1
 c302: u_a9 + K_a4_a9 - 1288 m_a4_proc_2 - 1288 m_a9_proc_2 - u_a4
       - 767 y_a4_proc_2 >= -2576
 c303: u_a9 + K_a4_a9 - 1288 m_a4_proc_0 - 1288 m_a9_proc_0 - u_a4
       - 1074 y_a4_proc_0 >= -2576
 c304: u_a9 + K_a4_a9 - 1288 m_a4_proc_1 - 1288 m_a9_proc_1 - u_a4
       - 932 y_a4_proc_1 >= -2576
 c305: K_a4_a9 + K_a9_a4 = 1
 c306: u_a4 + K_a9_a4 - 1288 m_a4_proc_2 - 1288 m_a9_proc_2 - u_a9
       - 1173 y_a9_proc_2 >= -2576
 c307: u_a4 + K_a9_a4 - 1288 m_a4_proc_0 - 1288 m_a9_proc_0 - u_a9
       - 815 y_a9_proc_0 >= -2576
 c308: u_a4 + K_a9_a4 - 1288 m_a4_proc_1 - 1288 m_a9_proc_1 - u_a9
       - 1243 y_a9_proc_1 >= -2576
 c309: K_a4_a9 + K_a9_a4 = 1
 c310: u_a6 + K_a5_a6 - 1288 m_a5_proc_2 - 1288 m_a6_proc_2 - u_a5
       - 819 y_a5_proc_2 >= -2576
 c311: u_a6 + K_a5_a6 - 1288 m_a5_proc_0 - 1288 m_a6_proc_0 - u_a5
       - 994 y_a5_proc_0 >= -2576
 c312: K_a5_a6 + K_a6_a5 = 1
 c313: u_a5 + K_a6_a5 - 1288 m_a5_proc_2 - 1288 m_a6_proc_2 - u_a6
       - 516 y_a6_proc_2 >= -2576
 c314: u_a5 + K_a6_a5 - 1288 m_a5_proc_0 - 1288 m_a6_proc_0 - u_a6
       - 969 y_a6_proc_0 >= -2576
 c315: K_a5_a6 + K_a6_a5 = 1
 c316: u_a7 + K_a5_a7 - 1288 m_a5_proc_2 - 1288 m_a7_proc_2 - u_a5
       - 819 y_a5_proc_2 >= -2576
 c317: u_a7 + K_a5_a7 - 1288 m_a5_proc_0 - 1288 m_a7_proc_0 - u_a5
       - 994 y_a5_proc_0 >= -2576
 c318: K_a5_a7 + K_a7_a5 = 1
 c319: u_a5 + K_a7_a5 - 1288 m_a5_proc_2 - 1288 m_a7_proc_2 - u_a7
       - 859 y_a7_proc_2 >= -2576
 c320: u_a5 + K_a7_a5 - 1288 m_a5_proc_0 - 1288 m_a7_proc_0 - u_a7
       - 893 y_a7_proc_0 >= -2576
 c321: K_a5_a7 + K_a7_a5 = 1
 c322: u_a8 + K_a5_a8 - 1288 m_a5_proc_0 - 1288 m_a8_proc_0 - u_a5
       - 994 y_a5_proc_0 >= -2576
 c323: K_a5_a8 + K_a8_a5 = 1
 c324: u_a5 + K_a8_a5 - 1288 m_a5_proc_0 - 1288 m_a8_proc_0 - u_a8
       - 840 y_a8_proc_0 >= -2576
 c325: K_a5_a8 + K_a8_a5 = 1
 c326: u_a9 + K_a5_a9 - 1288 m_a5_proc_2 - 1288 m_a9_proc_2 - u_a5
       - 819 y_a5_proc_2 >= -2576
 c327: u_a9 + K_a5_a9 - 1288 m_a5_proc_0 - 1288 m_a9_proc_0 - u_a5
       - 994 y_a5_proc_0 >= -2576
 c328: K_a5_a9 + K_a9_a5 = 1
 c329: u_a5 + K_a9_a5 - 1288 m_a5_proc_2 - 1288 m_a9_proc_2 - u_a9
       - 1173 y_a9_proc_2 >= -2576
 c330: u_a5 + K_a9_a5 - 1288 m_a5_proc_0 - 1288 m_a9_proc_0 - u_a9
       - 815 y_a9_proc_0 >= -2576
 c331: K_a5_a9 + K_a9_a5 = 1
 c332: u_a7 + K_a6_a7 - 1288 m_a6_proc_2 - 1288 m_a7_proc_2 - u_a6
       - 516 y_a6_proc_2 >= -2576
 c333: u_a7 + K_a6_a7 - 1288 m_a6_proc_0 - 1288 m_a7_proc_0 - u_a6
       - 969 y_a6_proc_0 >= -2576
 c334: u_a7 + K_a6_a7 - 1288 m_a6_proc_1 - 1288 m_a7_proc_1 - u_a6
       - 991 y_a6_proc_1 >= -2576
 c335: K_a6_a7 + K_a7_a6 = 1
 c336: u_a6 + K_a7_a6 - 1288 m_a6_proc_2 - 1288 m_a7_proc_2 - u_a7
       - 859 y_a7_proc_2 >= -2576
 c337: u_a6 + K_a7_a6 - 1288 m_a6_proc_0 - 1288 m_a7_proc_0 - u_a7
       - 893 y_a7_proc_0 >= -2576
 c338: u_a6 + K_a7_a6 - 1288 m_a6_proc_1 - 1288 m_a7_proc_1 - u_a7
       - 1135 y_a7_proc_1 >= -2576
 c339: K_a6_a7 + K_a7_a6 = 1
 c340: u_a8 + K_a6_a8 - 1288 m_a6_proc_0 - 1288 m_a8_proc_0 - u_a6
       - 969 y_a6_proc_0 >= -2576
 c341: u_a8 + K_a6_a8 - 1288 m_a6_proc_1 - 1288 m_a8_proc_1 - u_a6
       - 991 y_a6_proc_1 >= -2576
 c342: K_a6_a8 + K_a8_a6 = 1
 c343: u_a6 + K_a8_a6 - 1288 m_a6_proc_0 - 1288 m_a8_proc_0 - u_a8
       - 840 y_a8_proc_0 >= -2576
 c344: u_a6 + K_a8_a6 - 1288 m_a6_proc_1 - 1288 m_a8_proc_1 - u_a8
       - 1243 y_a8_proc_1 >= -2576
 c345: K_a6_a8 + K_a8_a6 = 1
 c346: u_a9 + K_a6_a9 - 1288 m_a6_proc_2 - 1288 m_a9_proc_2 - u_a6
       - 516 y_a6_proc_2 >= -2576
 c347: u_a9 + K_a6_a9 - 1288 m_a6_proc_0 - 1288 m_a9_proc_0 - u_a6
       - 969 y_a6_proc_0 >= -2576
 c348: u_a9 + K_a6_a9 - 1288 m_a6_proc_1 - 1288 m_a9_proc_1 - u_a6
       - 991 y_a6_proc_1 >= -2576
 c349: K_a6_a9 + K_a9_a6 = 1
 c350: u_a6 + K_a9_a6 - 1288 m_a6_proc_2 - 1288 m_a9_proc_2 - u_a9
       - 1173 y_a9_proc_2 >= -2576
 c351: u_a6 + K_a9_a6 - 1288 m_a6_proc_0 - 1288 m_a9_proc_0 - u_a9
       - 815 y_a9_proc_0 >= -2576
 c352: u_a6 + K_a9_a6 - 1288 m_a6_proc_1 - 1288 m_a9_proc_1 - u_a9
       - 1243 y_a9_proc_1 >= -2576
 c353: K_a6_a9 + K_a9_a6 = 1
 c354: u_a8 + K_a7_a8 - 1288 m_a7_proc_0 - 1288 m_a8_proc_0 - u_a7
       - 893 y_a7_proc_0 >= -2576
 c355: u_a8 + K_a7_a8 - 1288 m_a7_proc_1 - 1288 m_a8_proc_1 - u_a7
       - 1135 y_a7_proc_1 >= -2576
 c356: K_a7_a8 + K_a8_a7 = 1
 c357: u_a7 + K_a8_a7 - 1288 m_a7_proc_0 - 1288 m_a8_proc_0 - u_a8
       - 840 y_a8_proc_0 >= -2576
 c358: u_a7 + K_a8_a7 - 1288 m_a7_proc_1 - 1288 m_a8_proc_1 - u_a8
       - 1243 y_a8_proc_1 >= -2576
 c359: K_a7_a8 + K_a8_a7 = 1
 c360: u_a9 + K_a7_a9 - 1288 m_a7_proc_2 - 1288 m_a9_proc_2 - u_a7
       - 859 y_a7_proc_2 >= -2576
 c361: u_a9 + K_a7_a9 - 1288 m_a7_proc_0 - 1288 m_a9_proc_0 - u_a7
       - 893 y_a7_proc_0 >= -2576
 c362: u_a9 + K_a7_a9 - 1288 m_a7_proc_1 - 1288 m_a9_proc_1 - u_a7
       - 1135 y_a7_proc_1 >= -2576
 c363: K_a7_a9 + K_a9_a7 = 1
 c364: u_a7 + K_a9_a7 - 1288 m_a7_proc_2 - 1288 m_a9_proc_2 - u_a9
       - 1173 y_a9_proc_2 >= -2576
 c365: u_a7 + K_a9_a7 - 1288 m_a7_proc_0 - 1288 m_a9_proc_0 - u_a9
       - 815 y_a9_proc_0 >= -2576
 c366: u_a7 + K_a9_a7 - 1288 m_a7_proc_1 - 1288 m_a9_proc_1 - u_a9
       - 1243 y_a9_proc_1 >= -2576
 c367: K_a7_a9 + K_a9_a7 = 1
 c368: u_a9 + K_a8_a9 - 1288 m_a8_proc_0 - 1288 m_a9_proc_0 - u_a8
       - 840 y_a8_proc_0 >= -2576
 c369: u_a9 + K_a8_a9 - 1288 m_a8_proc_1 - 1288 m_a9_proc_1 - u_a8
       - 1243 y_a8_proc_1 >= -2576
 c370: K_a8_a9 + K_a9_a8 = 1
 c371: u_a8 + K_a9_a8 - 1288 m_a8_proc_0 - 1288 m_a9_proc_0 - u_a9
       - 815 y_a9_proc_0 >= -2576
 c372: u_a8 + K_a9_a8 - 1288 m_a8_proc_1 - 1288 m_a9_proc_1 - u_a9
       - 1243 y_a9_proc_1 >= -2576
 c373: K_a8_a9 + K_a9_a8 = 1

Bounds
       K_a0_a1 Free
       K_a0_a2 Free
       K_a0_a3 Free
       K_a0_a4 Free
       K_a0_a5 Free
       K_a0_a6 Free
       K_a0_a7 Free
       K_a0_a8 Free
       K_a0_a9 Free
       K_a1_a0 Free
       K_a1_a2 Free
       K_a1_a3 Free
       K_a1_a4 Free
       K_a1_a5 Free
       K_a1_a6 Free
       K_a1_a7 Free
       K_a1_a8 Free
       K_a1_a9 Free
       K_a2_a0 Free
       K_a2_a1 Free
       K_a2_a3 Free
       K_a2_a4 Free
       K_a2_a5 Free
       K_a2_a6 Free
       K_a2_a7 Free
       K_a2_a8 Free
       K_a2_a9 Free
       K_a3_a0 Free
       K_a3_a1 Free
       K_a3_a2 Free
       K_a3_a4 Free
       K_a3_a5 Free
       K_a3_a6 Free
       K_a3_a7 Free
       K_a3_a8 Free
       K_a3_a9 Free
       K_a4_a0 Free
       K_a4_a1 Free
       K_a4_a2 Free
       K_a4_a3 Free
       K_a4_a5 Free
       K_a4_a6 Free
       K_a4_a7 Free
       K_a4_a8 Free
       K_a4_a9 Free
       K_a5_a0 Free
       K_a5_a1 Free
       K_a5_a2 Free
       K_a5_a3 Free
       K_a5_a4 Free
       K_a5_a6 Free
       K_a5_a7 Free
       K_a5_a8 Free
       K_a5_a9 Free
       K_a6_a0 Free
       K_a6_a1 Free
       K_a6_a2 Free
       K_a6_a3 Free
       K_a6_a4 Free
       K_a6_a5 Free
       K_a6_a7 Free
       K_a6_a8 Free
       K_a6_a9 Free
       K_a7_a0 Free
       K_a7_a1 Free
       K_a7_a2 Free
       K_a7_a3 Free
       K_a7_a4 Free
       K_a7_a5 Free
       K_a7_a6 Free
       K_a7_a8 Free
       K_a7_a9 Free
       K_a8_a0 Free
       K_a8_a1 Free
       K_a8_a2 Free
       K_a8_a3 Free
       K_a8_a4 Free
       K_a8_a5 Free
       K_a8_a6 Free
       K_a8_a7 Free
       K_a8_a9 Free
       K_a9_a0 Free
       K_a9_a1 Free
       K_a9_a2 Free
       K_a9_a3 Free
       K_a9_a4 Free
       K_a9_a5 Free
       K_a9_a6 Free
       K_a9_a7 Free
       K_a9_a8 Free
 0 <= m_a0_proc_0 <= 1
 0 <= m_a0_proc_2 <= 1
 0 <= m_a1_proc_0 <= 1
 0 <= m_a1_proc_2 <= 1
 0 <= m_a2_proc_0 <= 1
 0 <= m_a2_proc_1 <= 1
 0 <= m_a2_proc_2 <= 1
 0 <= m_a3_proc_1 <= 1
 0 <= m_a3_proc_2 <= 1
 0 <= m_a4_proc_0 <= 1
 0 <= m_a4_proc_1 <= 1
 0 <= m_a4_proc_2 <= 1
 0 <= m_a5_proc_0 <= 1
 0 <= m_a5_proc_2 <= 1
 0 <= m_a6_proc_0 <= 1
 0 <= m_a6_proc_1 <= 1
 0 <= m_a6_proc_2 <= 1
 0 <= m_a7_proc_0 <= 1
 0 <= m_a7_proc_1 <= 1
 0 <= m_a7_proc_2 <= 1
 0 <= m_a8_proc_0 <= 1
 0 <= m_a8_proc_1 <= 1
 0 <= m_a9_proc_0 <= 1
 0 <= m_a9_proc_1 <= 1
 0 <= m_a9_proc_2 <= 1

Binaries
 m_a0_proc_0 m_a0_proc_2 m_a1_proc_0 m_a1_proc_2 m_a2_proc_0 m_a2_proc_1
 m_a2_proc_2 m_a3_proc_1 m_a3_proc_2 m_a4_proc_0 m_a4_proc_1 m_a4_proc_2
 m_a5_proc_0 m_a5_proc_2 m_a6_proc_0 m_a6_proc_1 m_a6_proc_2 m_a7_proc_0
 m_a7_proc_1 m_a7_proc_2 m_a8_proc_0 m_a8_proc_1 m_a9_proc_0 m_a9_proc_1
 m_a9_proc_2

Generals
 K_a0_a1 K_a0_a2 K_a0_a3 K_a0_a4 K_a0_a5 K_a0_a6 K_a0_a7 K_a0_a8 K_a0_a9 K_a1_a0
 K_a1_a2 K_a1_a3 K_a1_a4 K_a1_a5 K_a1_a6 K_a1_a7 K_a1_a8 K_a1_a9 K_a2_a0 K_a2_a1
 K_a2_a3 K_a2_a4 K_a2_a5 K_a2_a6 K_a2_a7 K_a2_a8 K_a2_a9 K_a3_a0 K_a3_a1 K_a3_a2
 K_a3_a4 K_a3_a5 K_a3_a6 K_a3_a7 K_a3_a8 K_a3_a9 K_a4_a0 K_a4_a1 K_a4_a2 K_a4_a3
 K_a4_a5 K_a4_a6 K_a4_a7 K_a4_a8 K_a4_a9 K_a5_a0 K_a5_a1 K_a5_a2 K_a5_a3 K_a5_a4
 K_a5_a6 K_a5_a7 K_a5_a8 K_a5_a9 K_a6_a0 K_a6_a1 K_a6_a2 K_a6_a3 K_a6_a4 K_a6_a5
 K_a6_a7 K_a6_a8 K_a6_a9 K_a7_a0 K_a7_a1 K_a7_a2 K_a7_a3 K_a7_a4 K_a7_a5 K_a7_a6
 K_a7_a8 K_a7_a9 K_a8_a0 K_a8_a1 K_a8_a2 K_a8_a3 K_a8_a4 K_a8_a5 K_a8_a6 K_a8_a7
 K_a8_a9 K_a9_a0 K_a9_a1 K_a9_a2 K_a9_a3 K_a9_a4 K_a9_a5 K_a9_a6 K_a9_a7 K_a9_a8
End
