benchmark/results/graph__10-1000-0.10-03_17/graph__10-1000-0.10-03_17_Quinton_Monolithic.txt
solution for: Quinton Monolithic
objective: 0.000328947
status: OPTIMAL_SOLUTION(2)
u_a0=0.209
u_a1=0.748
u_a2=1.106
u_a4=0.748
u_a5=0.471
u_a6=1.265
u_a7=1.178
u_a8=0.471
u_a9=0.591
tau=0.000
K_a0_a1=1
K_a0_a2=1
K_a0_a3=1
K_a0_a6=1
K_a0_a7=1
K_a0_a8=-1288
K_a0_a9=1
K_a1_a2=1
K_a1_a3=-1287
K_a1_a4=1
K_a1_a5=1289
K_a1_a6=1288
K_a1_a8=1
K_a1_a9=1289
K_a2_a3=1
K_a2_a4=1
K_a2_a5=1
K_a2_a7=1
K_a2_a8=1
K_a2_a9=1
K_a3_a1=1288
K_a3_a6=1
K_a3_a7=1
K_a3_a8=-2576
K_a3_a9=1
K_a4_a0=1
K_a4_a3=1
K_a4_a5=1
K_a4_a6=1
K_a4_a7=1
K_a4_a8=1
K_a4_a9=1
K_a5_a0=1
K_a5_a1=-1288
K_a5_a3=1
K_a5_a6=1288
K_a5_a7=1288
K_a5_a8=-1287
K_a5_a9=1288
K_a6_a1=-1287
K_a6_a2=1
K_a6_a5=-1287
K_a6_a7=1288
K_a6_a8=1
K_a6_a9=1
K_a7_a1=1
K_a7_a5=-1287
K_a7_a6=-1287
K_a7_a8=1
K_a7_a9=-1287
K_a8_a0=1289
K_a8_a3=2577
K_a8_a5=1288
K_a8_a9=1288
K_a9_a1=-1288
K_a9_a5=-1287
K_a9_a7=1288
K_a9_a8=-1287
m_a0_proc_2=1
m_a1_proc_0=1
m_a2_proc_1=1
m_a3_proc_2=1
m_a4_proc_2=1
m_a5_proc_2=1
m_a6_proc_1=1
m_a7_proc_0=1
m_a8_proc_0=1
m_a9_proc_1=1
y_a0_proc_2=0.000
y_a1_proc_0=0.000
y_a2_proc_1=0.000
y_a3_proc_2=0.000
y_a4_proc_2=0.000
y_a5_proc_2=0.000
y_a6_proc_1=0.000
y_a7_proc_0=0.000
y_a8_proc_0=0.000
y_a9_proc_1=0.000
